198 20800
1 2 7 6 3 4 5 8 9 10 11 12 13 86 100 84 87 99 98 97 96 101 107 169 125 126 131 130 133 132 134 135 146 143 145 144 137 172 190 191 192 193 186 187 185 179 178 175 176 173 174 198 197 196 195 194 166 165 164 163 151 150 149 147 160 161 153 152 162 148 142 141 140 136 129 127 182 183 181 177 180 184 188 189 171 128 170 168 167 108 109 110 111 106 92 91 78 64 77 76 65 51 47 39 52 46 53 62 75 82 88 83 89 90 81 95 94 93 102 103 104 114 113 112 116 117 118 119 120 124 138 159 158 157 156 155 154 139 123 121 122 115 105 79 80 63 49 48 50 35 25 24 22 23 29 30 31 32 38 14 15 16 17 18 19 20 21 26 27 28 34 33 36 37 45 54 61 66 74 70 73 67 68 59 56 44 55 60 72 85 69 71 58 57 42 43 41 40 
